objective value:                                   19
lambda[0,72]*                                       1 	(obj:0)
lambda[1,33]*                                       6 	(obj:0)
lambda[0,78]*                                       6 	(obj:0)
lambda[1,37]*                                       3 	(obj:0)
lambda[0,85]*                                       1 	(obj:0)
lambda[1,38]*                                       1 	(obj:19)
lambda[0,87]*                                       2 	(obj:0)
